W=5;
H=5;

MAX_TIME=15;
MAX_TRACKS=11;

TARGET=(1,5);

TRAINS=[(3,5,LEFT),(5,5,LEFT)];

INIT_POS=[
(1,2,STRAIGHT_RL),
(1,3,STRAIGHT_RL),
(1,4,STRAIGHT_RL),
(1,5,STRAIGHT_RL),
(3,5,STRAIGHT_RL),
(5,5,STRAIGHT_RL),
];
TUNNEL_PAIRS=[
  (1, 1, RIGHT, 4, 1, RIGHT),
];

GATES=[];
ACTIVATIONS=[];

DSWITCHES=[];

STATIONS=[];
